language ESSENCE' 1.0

letting jobs = 102
letting horizon = 786
letting resourcesRenew = 2
letting resourcesNonrenew = 2
letting resourceLimits = [23, 24, 264, 292]
letting successors = [[2, 3, 4, 5, 7, 8, 10, 11, 12, 16, 20], [17, 15, 14, 13, 9], [21, 15, 6], [22, 17, 15, 14], [26, 22, 21, 19, 18], [26, 22, 14], [27, 15, 13], [19, 17, 15], [32, 31, 26, 23, 22, 19], [35, 32, 31, 27, 26, 25, 23, 22], [42, 29, 27, 25, 23, 22, 21], [42, 31, 23, 22, 19], [42, 35, 32, 31, 29, 25, 23, 22], [42, 32, 31, 23, 19], [35, 32, 31, 26, 24, 23], [35, 34, 32, 31, 28, 25, 22], [39, 35, 32, 31, 30, 27, 23], [35, 32, 31, 24, 23], [48, 39, 36, 35, 29, 27, 25], [42, 35, 28, 27, 24], [38, 35, 31, 30], [38, 24], [48, 34, 33, 28], [48, 47, 39, 36, 30], [47, 44, 38, 33, 30], [51, 48, 45, 42, 40, 39, 38, 37, 36], [47, 44, 41, 38, 37, 34], [57, 51, 47, 43, 41, 40, 38, 36], [57, 47, 45, 44, 40, 38, 37], [57, 51, 46, 45, 41, 40, 37], [57, 49, 48, 45, 36], [48, 47, 46, 41, 40], [65, 57, 55, 51, 50, 46, 41], [63, 57, 51, 45, 40], [65, 60, 59, 57, 55, 52, 51, 47, 46], [67, 63, 55, 53, 52, 50, 44], [63, 50, 49, 43], [65, 63, 59, 55, 53, 52, 50, 46], [65, 63, 60, 55, 53, 52, 50, 46], [67, 58, 56, 55, 54, 53, 49], [67, 64, 63, 60, 59, 58, 56, 54, 53, 52], [70, 67, 65, 63, 59, 58, 56, 55, 53], [67, 65, 60, 58, 56, 55, 54, 52], [65, 64, 60, 59, 58, 56, 54], [75, 73, 69, 67, 66, 64, 58, 54, 52], [69, 67, 58, 56, 54], [71, 70, 69, 63, 58, 56], [72, 69, 56, 54], [73, 72, 70, 66, 65, 60, 59], [75, 73, 71, 70, 69, 66, 58], [75, 73, 70, 69, 67, 66, 61], [79, 78, 76, 72, 71, 70, 61], [78, 76, 73, 72, 69, 61], [79, 78, 76, 71, 70, 61], [74, 73, 72, 71, 69, 64], [78, 75, 73, 66, 62], [78, 71, 69, 66, 62], [78, 61], [78, 61], [81, 80, 79, 78, 75, 68], [89, 87, 81, 74, 68], [90, 89, 88, 87, 83, 82, 81, 77, 74], [90, 89, 87, 84, 82, 80, 79, 77, 76], [101, 84, 83, 82, 80, 79, 78, 77], [99, 88, 83, 81, 78, 71], [87, 81, 80, 79, 68], [79, 78, 71], [99, 97, 90, 88, 84, 83, 82, 77], [96, 87, 86, 83, 81, 79], [99, 97, 96, 89, 87, 86, 82, 81], [101, 98, 97, 84, 82, 77], [101, 99, 98, 97, 89, 88, 80], [99, 96, 92, 90, 88, 87, 86, 84], [101, 99, 97, 95, 91, 86, 80], [100, 97, 96, 94, 90, 87, 82], [101, 97, 96, 86, 85, 83], [100, 96, 95, 92, 91, 86, 85], [98, 97, 94, 92, 89, 87, 86], [99, 98, 97, 92, 91, 88], [96, 93, 92, 85], [93, 91, 84], [95, 92, 91], [95, 92, 91], [85], [94], [93], [93], [95], [91], [98], [102], [102], [102], [102], [102], [102], [102], [102], [102], [102], [102], []]
letting durations = [[0], [1, 2, 4], [1, 6, 10], [4, 9, 9], [5, 9, 10], [5, 8, 10], [2, 6, 8], [7, 8, 9], [1, 7, 9], [5, 9, 10], [6, 7, 8], [3, 5, 8], [3, 5, 7], [2, 4, 4], [3, 5, 9], [2, 3, 7], [4, 5, 6], [2, 4, 5], [1, 4, 10], [3, 4, 6], [7, 8, 10], [1, 1, 2], [1, 3, 4], [3, 6, 10], [3, 5, 7], [1, 3, 9], [8, 9, 10], [1, 9, 10], [2, 3, 4], [1, 2, 6], [4, 9, 10], [2, 8, 10], [2, 9, 10], [1, 4, 7], [7, 9, 10], [2, 5, 9], [2, 6, 7], [9, 9, 10], [3, 7, 8], [1, 3, 4], [4, 4, 5], [3, 4, 7], [3, 6, 10], [5, 7, 8], [1, 5, 7], [2, 4, 6], [4, 5, 8], [5, 6, 8], [1, 2, 8], [3, 7, 8], [2, 4, 7], [3, 5, 8], [1, 3, 5], [6, 10, 10], [6, 6, 7], [1, 3, 6], [2, 2, 7], [2, 3, 8], [2, 8, 9], [3, 6, 10], [2, 5, 5], [1, 2, 9], [6, 7, 10], [2, 4, 7], [4, 5, 7], [4, 7, 10], [3, 5, 9], [2, 8, 8], [3, 5, 7], [4, 5, 7], [2, 9, 10], [4, 5, 8], [4, 5, 7], [1, 4, 7], [4, 7, 9], [2, 8, 10], [4, 7, 8], [2, 3, 6], [2, 3, 3], [1, 5, 10], [2, 3, 6], [1, 3, 10], [2, 5, 9], [2, 6, 8], [1, 4, 5], [6, 8, 9], [3, 4, 9], [2, 4, 9], [7, 8, 10], [5, 7, 10], [1, 3, 9], [1, 3, 10], [7, 9, 10], [2, 5, 7], [1, 2, 6], [4, 9, 10], [4, 7, 8], [4, 5, 8], [2, 3, 4], [4, 6, 8], [2, 3, 6], [0]]
letting resourceUsage = [[[0, 0, 0, 0]], [[4, 5, 8, 0], [3, 3, 6, 0], [3, 3, 5, 0]], [[4, 2, 10, 0], [3, 1, 0, 5], [2, 1, 7, 0]], [[3, 4, 0, 5], [3, 4, 6, 0], [2, 4, 0, 2]], [[1, 5, 6, 0], [1, 3, 4, 0], [1, 2, 4, 0]], [[4, 3, 3, 0], [4, 3, 0, 10], [4, 3, 0, 9]], [[1, 5, 0, 8], [1, 4, 8, 0], [1, 3, 0, 4]], [[3, 4, 0, 8], [2, 4, 0, 6], [2, 2, 0, 2]], [[1, 2, 0, 3], [1, 2, 3, 0], [1, 2, 2, 0]], [[4, 4, 0, 8], [4, 4, 0, 7], [3, 2, 0, 7]], [[2, 3, 6, 0], [2, 3, 5, 0], [2, 1, 0, 2]], [[1, 5, 4, 0], [1, 3, 2, 0], [1, 1, 0, 2]], [[4, 2, 4, 0], [3, 2, 0, 4], [3, 2, 0, 3]], [[4, 3, 0, 8], [2, 2, 4, 0], [1, 2, 0, 6]], [[3, 3, 9, 0], [2, 3, 8, 0], [1, 3, 0, 6]], [[5, 4, 6, 0], [2, 2, 0, 7], [1, 1, 0, 5]], [[5, 4, 0, 6], [5, 2, 8, 0], [5, 2, 7, 0]], [[2, 3, 0, 8], [1, 3, 0, 8], [1, 3, 0, 7]], [[3, 4, 10, 0], [2, 4, 10, 0], [2, 3, 0, 2]], [[3, 1, 0, 2], [3, 1, 5, 0], [2, 1, 0, 2]], [[3, 3, 6, 0], [2, 3, 0, 8], [2, 2, 4, 0]], [[4, 4, 0, 6], [2, 4, 7, 0], [2, 4, 6, 0]], [[2, 2, 8, 0], [1, 1, 7, 0], [1, 1, 6, 0]], [[5, 3, 0, 6], [2, 3, 6, 0], [2, 3, 0, 3]], [[5, 5, 0, 3], [4, 2, 0, 3], [2, 1, 2, 0]], [[5, 3, 0, 4], [4, 2, 0, 3], [4, 2, 6, 0]], [[3, 4, 0, 1], [3, 4, 3, 0], [3, 3, 1, 0]], [[4, 5, 0, 9], [4, 4, 0, 8], [4, 3, 0, 6]], [[3, 3, 7, 0], [3, 2, 7, 0], [2, 1, 4, 0]], [[4, 5, 0, 1], [3, 4, 0, 1], [2, 3, 0, 1]], [[4, 3, 6, 0], [3, 3, 5, 0], [2, 3, 0, 4]], [[3, 3, 5, 0], [2, 3, 0, 4], [2, 3, 4, 0]], [[4, 5, 0, 4], [4, 3, 1, 0], [4, 2, 0, 2]], [[5, 4, 6, 0], [4, 4, 0, 8], [2, 4, 0, 4]], [[4, 4, 10, 0], [4, 4, 9, 0], [2, 3, 0, 3]], [[3, 4, 5, 0], [3, 3, 4, 0], [3, 2, 4, 0]], [[4, 4, 0, 6], [3, 4, 0, 6], [2, 4, 0, 6]], [[3, 1, 2, 0], [3, 1, 0, 9], [3, 1, 1, 0]], [[5, 4, 5, 0], [4, 4, 5, 0], [3, 4, 0, 4]], [[3, 3, 2, 0], [3, 3, 0, 6], [2, 1, 0, 5]], [[5, 2, 8, 0], [5, 1, 0, 3], [5, 1, 0, 2]], [[4, 4, 9, 0], [2, 3, 8, 0], [2, 3, 0, 6]], [[5, 4, 0, 7], [3, 3, 0, 6], [2, 2, 0, 3]], [[5, 5, 0, 8], [3, 5, 0, 6], [3, 5, 10, 0]], [[4, 2, 3, 0], [4, 2, 2, 0], [4, 1, 3, 0]], [[2, 4, 5, 0], [2, 3, 0, 8], [2, 1, 3, 0]], [[3, 5, 6, 0], [3, 2, 0, 4], [2, 1, 0, 1]], [[1, 4, 0, 7], [1, 4, 0, 6], [1, 3, 0, 5]], [[4, 3, 7, 0], [3, 1, 5, 0], [2, 1, 0, 5]], [[5, 4, 8, 0], [3, 3, 9, 0], [3, 3, 8, 0]], [[1, 4, 4, 0], [1, 4, 2, 0], [1, 3, 0, 4]], [[3, 3, 6, 0], [2, 3, 0, 5], [1, 3, 0, 3]], [[2, 1, 0, 9], [2, 1, 0, 8], [2, 1, 8, 0]], [[4, 2, 0, 9], [3, 1, 1, 0], [2, 1, 0, 9]], [[5, 5, 0, 9], [4, 4, 7, 0], [4, 3, 0, 9]], [[5, 4, 7, 0], [5, 3, 5, 0], [5, 2, 4, 0]], [[5, 4, 8, 0], [3, 2, 0, 6], [3, 2, 5, 0]], [[4, 1, 5, 0], [4, 1, 2, 0], [4, 1, 0, 7]], [[2, 5, 0, 3], [2, 2, 5, 0], [2, 2, 4, 0]], [[1, 1, 8, 0], [1, 1, 0, 7], [1, 1, 5, 0]], [[3, 4, 0, 7], [3, 4, 2, 0], [3, 4, 0, 3]], [[4, 5, 5, 0], [4, 3, 4, 0], [4, 2, 0, 2]], [[3, 3, 4, 0], [2, 3, 0, 4], [2, 3, 0, 2]], [[3, 3, 9, 0], [3, 2, 9, 0], [3, 1, 9, 0]], [[4, 3, 0, 9], [4, 3, 0, 4], [4, 2, 2, 0]], [[4, 4, 0, 9], [3, 4, 0, 7], [3, 4, 6, 0]], [[3, 5, 7, 0], [3, 4, 0, 9], [3, 4, 5, 0]], [[3, 5, 7, 0], [2, 5, 6, 0], [2, 5, 0, 7]], [[3, 5, 0, 9], [1, 5, 4, 0], [1, 5, 0, 5]], [[4, 5, 0, 5], [4, 5, 0, 4], [2, 5, 0, 3]], [[4, 3, 0, 4], [4, 2, 5, 0], [4, 2, 0, 4]], [[2, 2, 9, 0], [2, 1, 8, 0], [2, 1, 0, 3]], [[5, 2, 6, 0], [3, 2, 0, 5], [3, 2, 6, 0]], [[5, 1, 0, 8], [4, 1, 0, 6], [3, 1, 0, 4]], [[3, 5, 0, 5], [3, 4, 0, 3], [3, 3, 0, 3]], [[3, 5, 8, 0], [1, 4, 6, 0], [1, 4, 2, 0]], [[2, 3, 0, 3], [2, 2, 7, 0], [2, 1, 7, 0]], [[1, 2, 9, 0], [1, 2, 6, 0], [1, 2, 1, 0]], [[5, 4, 7, 0], [3, 3, 0, 6], [1, 2, 5, 0]], [[3, 3, 3, 0], [3, 2, 2, 0], [2, 2, 0, 2]], [[4, 4, 1, 0], [4, 3, 1, 0], [3, 3, 0, 5]], [[5, 2, 0, 3], [3, 1, 0, 3], [3, 1, 2, 0]], [[4, 3, 0, 10], [4, 2, 0, 7], [4, 1, 0, 2]], [[3, 3, 3, 0], [3, 3, 2, 0], [1, 1, 0, 9]], [[3, 2, 0, 10], [3, 2, 0, 4], [2, 2, 0, 4]], [[2, 2, 0, 6], [1, 2, 0, 4], [1, 1, 7, 0]], [[4, 1, 0, 6], [2, 1, 0, 4], [2, 1, 0, 3]], [[4, 1, 0, 9], [3, 1, 0, 6], [2, 1, 6, 0]], [[5, 3, 0, 7], [4, 2, 3, 0], [4, 1, 0, 6]], [[2, 4, 9, 0], [2, 3, 6, 0], [2, 3, 4, 0]], [[4, 3, 0, 8], [3, 2, 6, 0], [3, 1, 6, 0]], [[3, 3, 0, 8], [3, 3, 0, 7], [2, 1, 7, 0]], [[3, 1, 0, 9], [2, 1, 5, 0], [2, 1, 0, 7]], [[4, 5, 0, 8], [4, 2, 0, 4], [4, 1, 0, 3]], [[5, 3, 4, 0], [4, 2, 2, 0], [4, 1, 2, 0]], [[3, 3, 0, 5], [3, 3, 7, 0], [3, 2, 2, 0]], [[3, 4, 0, 8], [3, 3, 0, 7], [1, 2, 0, 7]], [[5, 3, 0, 5], [4, 2, 3, 0], [3, 1, 0, 3]], [[4, 3, 0, 5], [3, 3, 0, 5], [2, 3, 0, 5]], [[4, 2, 0, 8], [2, 2, 7, 0], [2, 2, 6, 0]], [[5, 5, 2, 0], [3, 3, 1, 0], [2, 2, 1, 0]], [[0, 0, 0, 0]]]
